c turning on binary mode checking
c parsing input formula with 259840 variables and 1039924 clauses
c finished parsing, read 51282546 bytes from proof file
c detected empty clause; start verification via backward checking
c 94441 of 1039924 clauses in core                            
c 183288 of 944132 lemmas in core using 3600329 resolution steps
c 0 RAT lemmas in core; 42523 redundant literals in core lemmas
s VERIFIED
c verification time: 16.035 seconds
